x = 10;
y = 16;
c = 66;
n = 29;

p = [26  99  18  78  88  73  67  58  52  19  48  43  31  32  83  48  29  69  54  93  40  20  16  12  12  73  36  51  92];
w = [2  9  8  6  3  6  5  5  5  10  6  10  3  4  9  9  10  4  10  2  6  6  10  5  1  4  5  5  1];
s = [4  2  4  6  5  6  2  9  5  6  3  10  8  2  10  3  1  5  2  2  2  3  7  9  1  6  9  2  4];
